data;

param num_top:=6;

#nodes and edges of the physical network
param n := 10;

set E := (1,2) (1,3) (1,7) (2,4) (2,7) (3,5) (4,8) (5,6) (5,7) (6,7) (6,9) (7,8) (7,9) (8,10) (9,10) ;

#nodes and edges of the virtual networks
set Nl[1] := 3 1 8 5 ;
set Nl[2] := 9 2 6 5 ;
set Nl[3] := 1 6 3 5 ;
set Nl[4] := 9 10 2 6 ;
set Nl[5] := 6 1 8 7 ;
set Nl[6] := 1 5 7 2 ;

set El[1] := (1,3) (1,8) (5,8) (3,5) (3,8) (1,5) ;
set El[2] := (2,9) (2,6) (5,6) (5,9) (6,9) (2,5) ;
set El[3] := (1,6) (3,6) (3,5) (1,5) (5,6) (1,3) ;
set El[4] := (9,10) (2,10) (2,6) (6,9) (6,10) (2,9) ;
set El[5] := (1,6) (1,8) (7,8) (6,7) (6,8) (1,7) ;
set El[6] := (1,5) (5,7) (2,7) (1,2) (1,7) (2,5) ;
